solution status: optimal solution found
objective value:                                   16
x35                                                 1 	(obj:1)
x36                                                 1 	(obj:1)
x37                                                 1 	(obj:1)
x38                                                 1 	(obj:1)
x39                                                 1 	(obj:1)
x41                                                 1 	(obj:1)
x43                                                 1 	(obj:1)
x47                                                 1 	(obj:1)
x49                                                 1 	(obj:1)
x50                                                 1 	(obj:1)
x52                                                 1 	(obj:1)
x53                                                 1 	(obj:1)
x55                                                 1 	(obj:1)
x56                                                 1 	(obj:1)
x57                                                 1 	(obj:1)
x58                                                 1 	(obj:1)
one.thingy.devices[2].thingy.vs2_y                   21 	(obj:0)
one.thingy.devices[2].thingy.vs2_z                   18 	(obj:0)
one.thingy.devices[3].thingy.circulate1_y                   22 	(obj:0)
one.thingy.devices[3].thingy.circulate1_z                   17 	(obj:0)
one.thingy.devices[2].thingy.circulate1_y                   22 	(obj:0)
one.thingy.devices[2].thingy.circulate1_z                   20 	(obj:0)
one.pump_b[1].hole_y                               18 	(obj:0)
one.pump_b[1].hole_z                               17 	(obj:0)
one.thingy.devices[1].thingy.circulate1_y                   23 	(obj:0)
one.thingy.devices[1].thingy.circulate1_z                   22 	(obj:0)
one.pump_b[1].flush_y                              17 	(obj:0)
one.pump_b[1].flush_z                              12 	(obj:0)
one.pump_a[2].flush_y                              18 	(obj:0)
one.pump_a[2].flush_z                              13 	(obj:0)
one.thingy.devices[0].thingy.circulate1_y                   24 	(obj:0)
one.thingy.devices[0].thingy.circulate1_z                   22 	(obj:0)
one.thingy.devices[1].thingy.vs2_y                   21 	(obj:0)
one.thingy.devices[1].thingy.vs2_z                   20 	(obj:0)
one.thingy.devices[3].thingy.vs2_y                   21 	(obj:0)
one.thingy.devices[3].thingy.vs2_z                   16 	(obj:0)
one.pump_a[2].hole_y                               20 	(obj:0)
one.pump_a[2].hole_z                               18 	(obj:0)
one.thingy.devices[0].thingy.vs2_y                   22 	(obj:0)
one.thingy.devices[0].thingy.vs2_z                   21 	(obj:0)
